PROBLEM NAME: small_7_Uncorrelated_n14_m39_c1
KNAPSACK DATA TYPE:
DIMENSION: 14
NUMBER OF ITEMS: 39
CAPACITY OF KNAPSACK: 1741
MIN SPEED: 0.1
MAX SPEED: 1.0
RENTING RATIO: 1.0
EDGE_WEIGHT_TYPE: CEIL_2D
NODE_COORD_SECTION	(INDEX, X, Y): 
1	485	574
2	964	68
3	998	271
4	256	18
5	538	582
6	45	428
7	463	443
8	279	878
9	399	213
10	198	855
11	796	51
12	795	512
13	537	823
14	509	627
ITEMS SECTION	(INDEX, PROFIT, WEIGHT, ASSIGNED NODE NUMBER): 
1	21	225	2
2	920	429	2
3	173	909	2
4	371	182	3
5	413	536	3
6	737	336	3
7	601	198	4
8	167	862	4
9	636	576	4
10	165	252	5
11	799	749	5
12	841	314	5
13	115	189	6
14	798	714	6
15	727	565	6
16	623	437	7
17	241	111	7
18	772	355	7
19	648	137	8
20	179	521	8
21	443	569	8
22	2	58	9
23	926	922	9
24	532	535	9
25	796	789	10
26	620	312	10
27	662	564	10
28	167	761	11
29	642	274	11
30	876	25	11
31	826	394	12
32	96	873	12
33	594	915	12
34	580	948	13
35	493	247	13
36	306	828	13
37	142	607	14
38	988	348	14
39	122	594	14
